NAME: CMT11_4
TYPE: CVRP
COMMENT: 1042.11 - Cluster Nr.4
DIMENSION: 21
CAPACITY: 200
EDGE_WEIGHT_TYPE: EUC_2D
NODE_COORD_TYPE: TWOD_COORDS
NODE_COORD_SECTION: 
10 82 3
8 82 7
5 84 5
11 76 6
3 79 11
20 87 7
21 87 5
2 85 8
12 79 3
13 76 13
4 10 45
16 73 6
17 78 3
19 78 9
1 76 10
7 84 3
14 73 8
15 90 15
18 85 1
9 79 5
6 84 9
DEPOT_SECTION: 
4
-1
DEMAND_SECTION: 
1 4
19 13
15 9
11 17
4 0
6 3
3 15
7 11
16 13
9 16
14 18
18 7
12 8
21 2
17 12
20 4
8 5
10 6
5 10
13 7
2 4
EOF
